Monolayer_MoS2
1.000000
 3.1600000000000001    0.0000000000000000    0.0000000000000000
-1.5800000000000001    2.7366402759588255    0.0000000000000000
 0.0000000000000000    0.0000000000000000   27.1657867887770195
Mo  S
1  2
Cartesian
-0.0000000000000007    1.8244268645516997    3.0606055605987046
  1.5800000120819722    0.9122129430083383    4.6328224796140010
  1.5800000120819719    0.9122129430083380    1.4884291736668065
 