Monolayer_MoS2
   1.00000000000000
 3.1600000000000001   0.0000000000000000   0.0000000000000000
-1.5800000000000001   2.7366402759588255   0.0000000000000000
 0.0000000000000000   0.0000000000000000  27.1657867887770195
   S    Mo
    2    1
Direct
 0.6666665823690180  0.3333331570912182   0.0547905785037568
 0.6666665823690180  0.3333331570912182   0.1705388662450946
 0.3333333358752240  0.6666666717504486   0.1126639763609987